40
1 0 4
2 0 75
2 1 16
3 0 2
3 1 37
3 2 19
4 0 26
4 1 70
4 2 53
4 3 29
5 0 38
5 1 40
5 2 11
5 3 16
5 4 52
6 0 13
6 1 44
6 2 30
6 3 15
6 4 73
6 5 63
7 0 52
7 1 63
7 2 68
7 3 18
7 4 78
7 5 15
7 6 39
8 0 72
8 1 23
8 2 64
8 3 17
8 4 38
8 5 12
8 6 63
8 7 25
9 0 8
9 1 64
9 2 27
9 3 70
9 4 51
9 5 14
9 6 19
9 7 62
9 8 67
10 0 3
10 1 67
10 2 30
10 3 31
10 4 17
10 5 18
10 6 65
10 7 73
10 8 49
10 9 2
11 0 67
11 1 39
11 2 49
11 3 7
11 4 53
11 5 7
11 6 55
11 7 26
11 8 26
11 9 6
11 10 56
12 0 2
12 1 38
12 2 51
12 3 13
12 4 52
12 5 36
12 6 70
12 7 14
12 8 79
12 9 32
12 10 72
12 11 6
13 0 79
13 1 42
13 2 76
13 3 74
13 4 58
13 5 50
13 6 62
13 7 32
13 8 33
13 9 78
13 10 34
13 11 48
13 12 26
14 0 57
14 1 30
14 2 80
14 3 75
14 4 37
14 5 54
14 6 40
14 7 77
14 8 2
14 9 29
14 10 11
14 11 58
14 12 6
14 13 42
15 0 20
15 1 21
15 2 36
15 3 50
15 4 71
15 5 12
15 6 22
15 7 78
15 8 64
15 9 55
15 10 11
15 11 49
15 12 28
15 13 21
15 14 1
16 0 64
16 1 16
16 2 54
16 3 48
16 4 77
16 5 51
16 6 7
16 7 37
16 8 64
16 9 55
16 10 58
16 11 64
16 12 68
16 13 52
16 14 26
16 15 3
17 0 69
17 1 46
17 2 22
17 3 44
17 4 43
17 5 60
17 6 63
17 7 76
17 8 53
17 9 34
17 10 42
17 11 1
17 12 57
17 13 5
17 14 34
17 15 6
17 16 22
18 0 6
18 1 79
18 2 37
18 3 5
18 4 61
18 5 77
18 6 30
18 7 22
18 8 70
18 9 12
18 10 7
18 11 44
18 12 80
18 13 9
18 14 49
18 15 69
18 16 65
18 17 52
19 0 9
19 1 76
19 2 64
19 3 40
19 4 49
19 5 32
19 6 73
19 7 51
19 8 76
19 9 10
19 10 43
19 11 3
19 12 69
19 13 7
19 14 32
19 15 66
19 16 60
19 17 44
19 18 40
20 0 13
20 1 47
20 2 76
20 3 16
20 4 35
20 5 64
20 6 41
20 7 74
20 8 27
20 9 16
20 10 73
20 11 19
20 12 2
20 13 35
20 14 56
20 15 13
20 16 45
20 17 22
20 18 30
20 19 3
21 0 16
21 1 70
21 2 24
21 3 26
21 4 12
21 5 64
21 6 56
21 7 7
21 8 6
21 9 33
21 10 46
21 11 5
21 12 29
21 13 1
21 14 22
21 15 47
21 16 65
21 17 50
21 18 80
21 19 65
21 20 39
22 0 43
22 1 39
22 2 71
22 3 60
22 4 72
22 5 57
22 6 12
22 7 57
22 8 2
22 9 20
22 10 28
22 11 54
22 12 2
22 13 58
22 14 52
22 15 27
22 16 13
22 17 38
22 18 69
22 19 55
22 20 3
22 21 24
23 0 71
23 1 78
23 2 17
23 3 2
23 4 65
23 5 16
23 6 14
23 7 11
23 8 65
23 9 76
23 10 60
23 11 59
23 12 60
23 13 42
23 14 9
23 15 59
23 16 31
23 17 55
23 18 14
23 19 65
23 20 32
23 21 47
23 22 14
24 0 48
24 1 52
24 2 35
24 3 23
24 4 23
24 5 37
24 6 22
24 7 1
24 8 38
24 9 66
24 10 62
24 11 44
24 12 75
24 13 56
24 14 68
24 15 13
24 16 49
24 17 2
24 18 50
24 19 50
24 20 17
24 21 69
24 22 2
24 23 1
25 0 80
25 1 80
25 2 79
25 3 37
25 4 52
25 5 69
25 6 8
25 7 60
25 8 40
25 9 35
25 10 10
25 11 53
25 12 20
25 13 65
25 14 62
25 15 54
25 16 13
25 17 23
25 18 49
25 19 32
25 20 27
25 21 25
25 22 2
25 23 43
25 24 25
26 0 52
26 1 53
26 2 55
26 3 38
26 4 43
26 5 49
26 6 10
26 7 62
26 8 58
26 9 36
26 10 13
26 11 62
26 12 55
26 13 57
26 14 1
26 15 2
26 16 27
26 17 52
26 18 10
26 19 24
26 20 12
26 21 9
26 22 39
26 23 28
26 24 33
26 25 79
27 0 19
27 1 67
27 2 3
27 3 50
27 4 51
27 5 76
27 6 12
27 7 3
27 8 31
27 9 60
27 10 38
27 11 78
27 12 51
27 13 13
27 14 10
27 15 74
27 16 21
27 17 24
27 18 20
27 19 72
27 20 15
27 21 35
27 22 78
27 23 33
27 24 3
27 25 72
27 26 13
28 0 71
28 1 13
28 2 47
28 3 15
28 4 64
28 5 67
28 6 78
28 7 62
28 8 70
28 9 30
28 10 61
28 11 31
28 12 21
28 13 20
28 14 51
28 15 74
28 16 59
28 17 47
28 18 51
28 19 53
28 20 79
28 21 48
28 22 6
28 23 43
28 24 64
28 25 52
28 26 28
28 27 38
29 0 53
29 1 31
29 2 54
29 3 16
29 4 77
29 5 68
29 6 58
29 7 51
29 8 73
29 9 34
29 10 68
29 11 10
29 12 75
29 13 29
29 14 12
29 15 63
29 16 1
29 17 2
29 18 58
29 19 69
29 20 15
29 21 2
29 22 61
29 23 75
29 24 41
29 25 4
29 26 31
29 27 22
29 28 64
30 0 5
30 1 28
30 2 49
30 3 14
30 4 79
30 5 5
30 6 31
30 7 14
30 8 22
30 9 38
30 10 77
30 11 71
30 12 64
30 13 65
30 14 40
30 15 52
30 16 8
30 17 25
30 18 40
30 19 63
30 20 69
30 21 18
30 22 8
30 23 71
30 24 10
30 25 69
30 26 66
30 27 29
30 28 53
30 29 46
31 0 8
31 1 22
31 2 41
31 3 57
31 4 78
31 5 69
31 6 48
31 7 80
31 8 64
31 9 78
31 10 71
31 11 10
31 12 58
31 13 48
31 14 43
31 15 10
31 16 23
31 17 5
31 18 7
31 19 77
31 20 45
31 21 47
31 22 37
31 23 55
31 24 41
31 25 27
31 26 33
31 27 50
31 28 47
31 29 7
31 30 66
32 0 56
32 1 56
32 2 15
32 3 58
32 4 76
32 5 5
32 6 36
32 7 11
32 8 44
32 9 49
32 10 7
32 11 3
32 12 16
32 13 76
32 14 71
32 15 11
32 16 44
32 17 3
32 18 17
32 19 2
32 20 72
32 21 3
32 22 44
32 23 16
32 24 48
32 25 10
32 26 52
32 27 69
32 28 62
32 29 6
32 30 41
32 31 32
33 0 16
33 1 1
33 2 62
33 3 13
33 4 47
33 5 44
33 6 12
33 7 60
33 8 45
33 9 21
33 10 13
33 11 12
33 12 6
33 13 28
33 14 19
33 15 10
33 16 9
33 17 46
33 18 55
33 19 75
33 20 59
33 21 14
33 22 47
33 23 27
33 24 8
33 25 24
33 26 13
33 27 8
33 28 61
33 29 70
33 30 35
33 31 73
33 32 44
34 0 25
34 1 14
34 2 16
34 3 60
34 4 25
34 5 22
34 6 6
34 7 27
34 8 47
34 9 35
34 10 65
34 11 53
34 12 33
34 13 33
34 14 23
34 15 53
34 16 15
34 17 29
34 18 29
34 19 44
34 20 48
34 21 7
34 22 10
34 23 46
34 24 73
34 25 14
34 26 40
34 27 31
34 28 35
34 29 22
34 30 55
34 31 72
34 32 34
34 33 9
35 0 25
35 1 66
35 2 57
35 3 74
35 4 24
35 5 22
35 6 1
35 7 29
35 8 79
35 9 5
35 10 48
35 11 12
35 12 63
35 13 46
35 14 61
35 15 79
35 16 37
35 17 37
35 18 32
35 19 45
35 20 1
35 21 28
35 22 37
35 23 39
35 24 33
35 25 36
35 26 23
35 27 55
35 28 1
35 29 62
35 30 69
35 31 44
35 32 13
35 33 12
35 34 54
36 0 54
36 1 31
36 2 45
36 3 55
36 4 26
36 5 14
36 6 17
36 7 42
36 8 60
36 9 25
36 10 33
36 11 79
36 12 70
36 13 19
36 14 32
36 15 28
36 16 20
36 17 59
36 18 28
36 19 22
36 20 14
36 21 19
36 22 36
36 23 10
36 24 26
36 25 21
36 26 54
36 27 78
36 28 26
36 29 68
36 30 51
36 31 66
36 32 11
36 33 14
36 34 62
36 35 49
37 0 18
37 1 42
37 2 44
37 3 3
37 4 64
37 5 20
37 6 44
37 7 34
37 8 45
37 9 49
37 10 55
37 11 3
37 12 68
37 13 44
37 14 60
37 15 50
37 16 15
37 17 55
37 18 15
37 19 1
37 20 31
37 21 9
37 22 62
37 23 9
37 24 66
37 25 76
37 26 34
37 27 59
37 28 57
37 29 48
37 30 45
37 31 70
37 32 16
37 33 3
37 34 54
37 35 35
37 36 64
38 0 67
38 1 70
38 2 59
38 3 36
38 4 53
38 5 57
38 6 1
38 7 10
38 8 27
38 9 48
38 10 72
38 11 79
38 12 65
38 13 37
38 14 41
38 15 24
38 16 52
38 17 45
38 18 63
38 19 51
38 20 63
38 21 45
38 22 1
38 23 16
38 24 62
38 25 25
38 26 58
38 27 19
38 28 53
38 29 79
38 30 49
38 31 65
38 32 24
38 33 30
38 34 66
38 35 37
38 36 58
38 37 47
39 0 78
39 1 45
39 2 61
39 3 42
39 4 61
39 5 19
39 6 24
39 7 57
39 8 72
39 9 34
39 10 45
39 11 40
39 12 66
39 13 16
39 14 42
39 15 53
39 16 37
39 17 36
39 18 17
39 19 65
39 20 62
39 21 66
39 22 43
39 23 30
39 24 17
39 25 9
39 26 5
39 27 71
39 28 77
39 29 59
39 30 45
39 31 66
39 32 70
39 33 4
39 34 36
39 35 28
39 36 25
39 37 37
39 38 39
